; benchmark generated from python API
(set-info :status unknown)
(declare-fun S_3 () Real)
(declare-fun S_4 () Real)
(declare-fun C () Real)
(declare-fun S_0 () Real)
(declare-fun S_2 () Real)
(declare-fun S_1 () Real)
(declare-fun A_0 () Real)
(declare-fun L_0 () Real)
(declare-fun L0 () Real)
(declare-fun B () Real)
(declare-fun A_3 () Real)
(declare-fun A_4 () Real)
(declare-fun L_2 () Real)
(declare-fun L_4 () Real)
(declare-fun L_1 () Real)
(declare-fun A_1 () Real)
(declare-fun L_3 () Real)
(declare-fun A_2 () Real)
(assert
 (let (($x37 (>= L0 0.0)))
 (let (($x942 (>= C 5.0)))
 (let (($x1404 (not (<= L_4 L_2))))
 (let (($x6832 (<= (+ A_1 (* (- 1.0) L_0) L_4 (* (- 1.0) A_4) (* 3.0 C)) 0.0)))
 (let ((?x298 (* (- 1.0) C)))
 (let ((?x291 (* (- 1.0) L_4)))
 (let ((?x231 (* (- 1.0) B)))
 (let ((?x6527 (+ ?x231 ?x291 A_4 ?x298)))
 (let (($x6534 (<= (+ A_3 (* (- 1.0) L_0)) ?x6527)))
 (let (($x1630 (= L_4 L_2)))
 (let (($x9764 (or (not $x6534) (= (+ A_4 ?x291 ?x231) (+ A_3 (* (- 1.0) L_0) C)))))
 (let (($x1040 (<= L_1 L_0)))
 (let (($x1042 (not $x1040)))
 (let (($x6592 (<= (+ A_2 (* (- 1.0) L_0) L_4 (* (- 1.0) A_4) (* 2.0 C)) 0.0)))
 (let (($x2317 (= L_4 L_1)))
 (let (($x1179 (not (= L_1 L_3))))
 (let (($x2080 (not (= L_2 L_4))))
 (let (($x1762 (not (<= L_2 L_1))))
 (let (($x54 (= L_1 L_0)))
 (let (($x10175 (or $x54 $x1762 $x2080 (<= (+ A_4 (* (- 1.0) A_1) (* (- 3.0) C)) 0.0))))
 (let (($x748 (not (= L_1 L_2))))
 (let (($x9955 (or (not (<= A_3 (+ A_1 ?x231 (* 2.0 C)))) $x2317 (= (+ A_4 ?x291 ?x231) (+ A_3 (* (- 1.0) L_1) C)))))
 (let (($x563 (<= A_3 (+ A_1 ?x231 (* 2.0 C)))))
 (let (($x10389 (or $x563 $x1040 $x1630 (= (+ A_4 ?x291) (+ A_1 (* (- 1.0) L_1) (* 3.0 C))))))
 (let (($x64 (= L_2 L_1)))
 (let (($x9867 (or $x64 $x2080 (<= (+ A_4 (* (- 1.0) A_2) (* (- 2.0) C)) 0.0))))
 (let (($x10065 (or $x64 $x1040 (= (+ A_1 (* (- 1.0) L_1) C) (+ A_2 (* (- 1.0) L_2))))))
 (let (($x74 (= L_3 L_2)))
 (let (($x783 (not (= L_0 L_1))))
 (let (($x745 (= L_2 L_0)))
 (let (($x6401 (or (<= (+ A_1 (* (- 1.0) L_0) L_2 (* (- 1.0) A_2) C) 0.0) $x745 $x783)))
 (let ((?x214 (* (- 1.0) L_0)))
 (let ((?x925 (+ A_0 ?x214)))
 (let ((?x729 (* (- 2.0) C)))
 (let ((?x257 (* (- 1.0) L_2)))
 (let ((?x6333 (+ ?x231 ?x257 A_2 ?x729)))
 (let (($x117 (>= S_3 S_2)))
 (let (($x123 (>= A_2 A_1)))
 (let (($x36 (>= L_0 L0)))
 (let (($x111 (>= S_1 S_0)))
 (let (($x114 (>= S_2 S_1)))
 (let (($x124 (>= A_3 A_2)))
 (and (<= (+ A_3 (* (- 1.0) L_3)) S_4) (<= ?x925 S_3) (not (<= (+ A_1 (* (- 1.0) L_1)) S_3)) $x124 $x114 $x111 $x36 $x123 $x117 (or (= L_4 L_3) (<= S_4 (+ A_4 ?x291 ?x231))) (or $x54 (<= S_1 (+ A_1 (* (- 1.0) L_1) ?x231))) (or $x64 (<= S_2 (+ A_2 ?x257 ?x231))) (or $x64 (<= S_1 (+ ?x231 ?x257 A_2 ?x298))) (>= S_3 (+ A_2 ?x257 ?x231)) (or $x64 (<= S_0 ?x6333)) (or $x1404 $x1630) (or $x54 $x1042) (>= S_1 ?x6333) (or $x64 $x1630 (= (+ A_4 ?x291) (+ A_2 ?x257 (* 2.0 C)))) (or $x64 $x1762) (>= S_2 (+ A_1 (* (- 1.0) L_1) ?x231)) (<= (+ ?x231 (* (- 1.0) L_1) A_1 ?x298) ?x925) (>= S_2 (+ ?x231 ?x257 A_2 ?x298)) (>= S_0 (+ ?x231 ?x257 A_2 (* (- 3.0) C))) (<= ?x6333 ?x925) $x6401 (>= S_1 (+ ?x231 (* (- 1.0) L_1) A_1 ?x298)) $x74 $x10065 (>= S_3 (+ A_1 (* (- 1.0) L_1) ?x231 C)) $x9867 (or $x64 (<= S_4 (+ A_2 ?x257 ?x231 (* 2.0 C)))) (or $x54 (<= S_2 (+ A_1 (* (- 1.0) L_1) ?x231 C))) (or $x54 (<= S_0 (+ ?x231 (* (- 1.0) L_1) A_1 ?x298))) (>= S_0 (+ ?x231 (* (- 1.0) L_1) A_1 ?x729)) (<= S_4 (+ A_4 ?x257)) (or $x54 (<= S_3 (+ A_1 (* (- 1.0) L_1) ?x231 (* 2.0 C)))) $x10389 $x9955 (or $x54 (<= S_4 (+ A_1 (* (- 1.0) L_1) ?x231 (* 3.0 C)))) (or $x54 (<= (+ A_2 (* (- 1.0) A_1) ?x298) 0.0) $x748) $x10175 (or $x1042 $x1179 $x2317 $x6592) (>= S_3 (+ ?x231 ?x291 A_4 ?x729)) (>= S_2 (+ ?x231 ?x291 A_4 (* (- 3.0) C))) (>= S_0 (+ ?x231 ?x291 A_4 (* (- 5.0) C))) (>= S_1 (+ ?x231 ?x291 A_4 (* (- 4.0) C))) (or $x1042 $x1630 $x6534 (<= S_2 (+ ?x231 ?x291 A_4 ?x729))) (or $x1042 $x1630 $x6534 (<= S_0 (+ ?x231 ?x291 A_4 (* (- 4.0) C)))) (or $x1042 $x1630 $x6534 (<= S_1 (+ ?x231 ?x291 A_4 (* (- 3.0) C)))) (<= (+ ?x231 ?x291 A_4 (* (- 4.0) C)) ?x925) (<= (+ (* 2.0 C) (* (- 1.0) S_3) S_0) 0.0) (<= (+ C (* (- 1.0) S_3) S_1) 0.0) (<= (+ ?x729 L_0 (* (- 1.0) A_0) S_2) 0.0) (<= (+ (* (- 3.0) C) S_2 (* (- 1.0) S_0)) 0.0) (<= (+ ?x729 S_2 (* (- 1.0) S_1)) 0.0) (<= (+ (* (- 5.0) C) S_4 (* (- 1.0) S_0)) 0.0) $x9764 (or (= L_4 L_3) (<= S_3 ?x6527)) (or (not (<= L_2 L_0)) $x1630 $x6534 $x6832) (<= (+ (* (- 4.0) C) L_0 S_4 (* (- 1.0) A_0)) 0.0) (<= (+ (* (- 3.0) C) S_4 (* (- 1.0) S_2)) 0.0) (<= (+ (* (- 4.0) C) S_4 (* (- 1.0) S_1)) 0.0) (<= S_4 (+ A_3 (* (- 1.0) L_1) C)) (<= (+ ?x729 S_3 (* (- 1.0) S_2)) 0.0) (<= (+ (* (- 3.0) C) L_0 (* (- 1.0) A_0) S_3) 0.0) (<= (+ (* (- 4.0) C) S_3 (* (- 1.0) S_0)) 0.0) (<= (+ (* (- 3.0) C) S_3 (* (- 1.0) S_1)) 0.0) (or $x1404 (<= (+ A_4 (* (- 1.0) A_3) ?x298) B)) $x942 $x37 (<= (+ L_0 (* (- 1.0) A_0) S_0) 0.0) (<= (+ ?x298 L_0 (* (- 1.0) A_0) S_1) 0.0) (<= (+ ?x729 S_1 (* (- 1.0) S_0)) 0.0) (<= (+ C (* (- 1.0) S_2) S_0) 0.0) (<= (+ ?x729 S_4 (* (- 1.0) S_3)) 0.0)))))))))))))))))))))))))))))))))))))))))))))
(check-sat)
